0
11
12
0
0
23
39
244
236
228
220
219
227
235
243
38
30
22
41
33
25
17
0
0
10
18
26
34
42
37
29
21
13
0
0
9
6
14
15
7
0
0
8
16
24
32
40
158
203
195
187
179
245
237
229
221
31
0
0
20
28
36
44
79
71
63
55
54
62
70
78
43
35
27
19
0
